widget_shipment.sol
# Solution for model widgets
# Objective value = 39625
C0(4) 12.5
C1(4) 0
C2(4) 0
C3(4) 0
C4(4) 187.5
C5(4) 0
C6(4) 0
C7(4) 225
C8(4) 150
C9(4) 0
C10(4) 0
C11(4) 0
C12(4) 0
C13(4) 0
C14(4) 0
C15(4) 0
C16(4) 0
C17(4) 225
C18(4) 0
C19(4) 0
C20(4) 0
C21(4) 262.5
C22(4) 0
C23(4) 0
C24(4) 175
C25(4) 0
C26(4) 0
C27(4) 0
C28(4) 0
C29(4) 0
